NAME : B-n52-k7
COMMENT : (Augerat et al, Min no of trucks: 7, Optimal value: 747)
TYPE : CVRP
DIMENSION : 52
EDGE_WEIGHT_TYPE : EUC_2D 
CAPACITY : 100
NODE_COORD_SECTION 
1 29 33
2 41 11
3 31 87
4 91 27
5 53 87
6 7 19
7 27 19
8 1 41
9 8 20
10 40 92
11 14 20
12 92 32
13 62 94
14 45 97
15 96 36
16 47 101
17 40 92
18 49 97
19 48 12
20 45 101
21 46 16
22 92 34
23 49 95
24 62 92
25 96 28
26 28 22
27 47 95
28 9 21
29 92 30
30 12 22
31 48 12
DEMAND_SECTION 
1 0 
2 22 
3 8 
4 3 
5 6 
6 10 
7 18 
8 8 
9 13 
10 13 
11 3 
12 10 
13 6 
14 23 
15 8 
16 4 
17 13 
18 6 
19 5 
20 10 
21 22 
22 13 
23 13 
24 18 
25 14 
26 14 
27 26 
28 23 
29 4 
30 25 
31 9 
DEPOT_SECTION 
1  
-1  
EOF 
